50
4458

59 247
743 474
898 1000
611 386
415 978
588 173
572 28
647 980
172 371
904 349
135 1000
626 108
545 726
691 793
606 175
55 38
762 393
466 552
485 667
248 973
955 632
622 834
837 565
74 377
638 580
811 27
30 661
5 210
981 82
433 448
127 720
442 24
957 551
738 192
83 906
795 733
325 538
108 971
965 104
335 745
610 361
158 48
336 937
320 369
510 2
747 476
166 68
160 899
298 297
729 595
